
Gurobi 11.0.3 (linux64) logging started Mon Aug 25 15:05:28 2025

Set parameter LogFile to value "/home/yihong/Coding/OR_SUC/SUC_epstheta_results_bigM100000_thread4/case24_ieee_rts_theta0.1_epsilon0.1_gurobi_seed130000_num_gen100_N_WDR50_load_scaling_factor1_proposed_theta_T10quadra_cost_bc1.01.txt"
Set parameter TimeLimit to value 3600
Gurobi Optimizer version 11.0.3 build v11.0.3rc0 (linux64 - "Ubuntu 20.04.6 LTS")

CPU model: AMD EPYC 7532 32-Core Processor, instruction set [SSE2|AVX|AVX2]
Thread count: 64 physical cores, 128 logical processors, using up to 4 threads

Academic license 2399124 - for non-commercial use only - registered to yi___@ed.ac.uk
Optimize a model with 23642 rows, 12451 columns and 547142 nonzeros
Model fingerprint: 0x4cf91406
Model has 1000 quadratic constraints
Variable types: 11451 continuous, 1000 integer (1000 binary)
Coefficient statistics:
  Matrix range     [3e-04, 2e+03]
  QMatrix range    [2e-03, 8e-03]
  QLMatrix range   [2e-01, 6e+01]
  Objective range  [1e+00, 1e+00]
  Bounds range     [1e+00, 1e+00]
  RHS range        [1e+00, 9e+03]
Presolve removed 19312 rows and 5329 columns
Presolve time: 0.23s
Presolved: 4330 rows, 7122 columns, 24416 nonzeros
Presolved model has 1000 quadratic constraint(s)
Variable types: 6122 continuous, 1000 integer (1000 binary)

Root relaxation: objective 1.148794e+04, 3560 iterations, 0.10 seconds (0.09 work units)

    Nodes    |    Current Node    |     Objective Bounds      |     Work
 Expl Unexpl |  Obj  Depth IntInf | Incumbent    BestBd   Gap | It/Node Time

     0     0 11487.9419    0    -          - 11487.9419      -     -    0s
     0     0 179317.417    0  244          - 179317.417      -     -    0s
     0     0 299644.885    0  120          - 299644.885      -     -    0s
     0     0 299696.264    0  120          - 299696.264      -     -    0s
     0     0 299696.425    0   90          - 299696.425      -     -    0s
     0     0 299696.425    0   90          - 299696.425      -     -    1s
     0     0 299696.425    0   90          - 299696.425      -     -    1s
     0     0 299696.425    0   90          - 299696.425      -     -    1s
     0     2 299696.425    0   90          - 299696.425      -     -    3s
H   91    89                    299706.30440 299696.425  0.00%  15.0    3s
*   91    89              33    299706.30440 299696.425  0.00%  15.1    3s

Cutting planes:
  Gomory: 190
  Lift-and-project: 2
  Implied bound: 257
  MIR: 37
  Flow cover: 123
  RLT: 119

Explored 96 nodes (9799 simplex iterations) in 4.23 seconds (3.12 work units)
Thread count was 4 (of 128 available processors)

Solution count 2: 299706 299706 

Optimal solution found (tolerance 1.00e-03)
Warning: max constraint violation (1.9949e-07) exceeds tolerance
Best objective 2.997063044013e+05, best bound 2.996964248332e+05, gap 0.0033%

Gurobi 11.0.3 (linux64) logging started Mon Aug 25 15:05:33 2025

Set parameter LogFile to value "/home/yihong/Coding/OR_SUC/SUC_epstheta_results_bigM100000_thread4/case24_ieee_rts_theta0.1_epsilon0.1_gurobi_seed130000_num_gen100_N_WDR50_load_scaling_factor1_proposed_theta_T10quadra_cost_bc1.01.txt"
Set parameter TimeLimit to value 3600
Gurobi Optimizer version 11.0.3 build v11.0.3rc0 (linux64 - "Ubuntu 20.04.6 LTS")

CPU model: AMD EPYC 7532 32-Core Processor, instruction set [SSE2|AVX|AVX2]
Thread count: 64 physical cores, 128 logical processors, using up to 4 threads

Academic license 2399124 - for non-commercial use only - registered to yi___@ed.ac.uk
Optimize a model with 23643 rows, 12452 columns and 550243 nonzeros
Model fingerprint: 0xee313a7a
Model has 1000 quadratic constraints
Variable types: 11452 continuous, 1000 integer (1000 binary)
Coefficient statistics:
  Matrix range     [3e-04, 2e+03]
  QMatrix range    [2e-03, 8e-03]
  QLMatrix range   [2e-01, 6e+01]
  Objective range  [1e+00, 1e+00]
  Bounds range     [1e-01, 1e+00]
  RHS range        [1e+00, 3e+05]
Presolve removed 17522 rows and 4435 columns
Presolve time: 0.18s
Presolved: 6121 rows, 8017 columns, 32832 nonzeros
Presolved model has 1000 quadratic constraint(s)
Variable types: 7015 continuous, 1002 integer (1002 binary)

Root relaxation: objective 9.854557e+00, 5882 iterations, 0.12 seconds (0.14 work units)

    Nodes    |    Current Node    |     Objective Bounds      |     Work
 Expl Unexpl |  Obj  Depth IntInf | Incumbent    BestBd   Gap | It/Node Time

     0     0    9.85456    0    -          -    9.85456      -     -    0s
     0     0    1.07926    0   16          -    1.07926      -     -    0s
     0     0    0.32101    0   20          -    0.32101      -     -    1s
     0     0    0.32101    0   20          -    0.32101      -     -    1s
     0     0    0.32095    0   20          -    0.32095      -     -    1s
     0     0    0.32093    0   20          -    0.32093      -     -    1s
     0     0    0.32093    0   20          -    0.32093      -     -    1s
     0     0    0.32093    0   20          -    0.32093      -     -    7s
     0     2    0.32093    0   20          -    0.32093      -     -    7s
H   29    31                       0.3201390    0.32061  0.15%  29.8    8s
*   29    31               8       0.3201390    0.32061  0.15%  30.9    8s

Cutting planes:
  Implied bound: 18
  RLT: 7

Explored 40 nodes (12247 simplex iterations) in 8.72 seconds (6.55 work units)
Thread count was 4 (of 128 available processors)

Solution count 1: 0.320139 

Optimal solution found (tolerance 1.00e-03)
Warning: max constraint violation (1.3367e-09) exceeds tolerance
Best objective 3.201390166165e-01, best bound 3.203777610838e-01, gap 0.0746%
